results/res_prop_muc/res_Cimatti_mathsat_cores/QF_IDL/Partition_safe_bgmc002.smt.smt2.res
unsat
( c105
  c13
  c15
  c152
  c16
  c1964
  c1971
  c1982
  c1986
  c1989
  c1996
  c2007
  c2011
  c2031
  c2032
  c2033
  c2034
  c2045
  c2076
  c2084
  c2115
  c212
  c2178
  c2220
  c2265
  c335
  c351
  c359
  c421
  c428
  c432
  c442
  c444
  c495
  c5
  c517
  c520
  c6
  c626
  c7
  c8
  c9 )
